NAME : instances/50-tsp/instance-28.tsp
COMMENT : No comment
TYPE : TSP
DIMENSION: 50
EDGE_WEIGHT_TYPE : EUC_2D
NODE_COORD_SECTION
1 775 387 
2 603 244 
3 352 399 
4 1266 1839 
5 281 582 
6 1057 1391 
7 1523 153 
8 814 480 
9 404 1989 
10 1670 1477 
11 734 1414 
12 601 778 
13 342 247 
14 1084 811 
15 1219 749 
16 1716 1250 
17 1351 216 
18 897 1267 
19 777 1196 
20 779 1023 
21 922 1008 
22 1949 1499 
23 1356 1462 
24 265 1498 
25 1536 961 
26 1573 389 
27 1275 215 
28 358 1342 
29 1682 551 
30 270 272 
31 1467 968 
32 1163 1970 
33 1874 670 
34 29 250 
35 1818 1170 
36 613 1417 
37 1686 450 
38 74 299 
39 1982 1717 
40 1078 1101 
41 549 1675 
42 596 798 
43 20 1163 
44 316 456 
45 1302 1444 
46 1172 572 
47 1574 472 
48 1381 802 
49 433 1540 
50 634 1874 
EOF
